(set-logic QF_LRA)
(declare-fun fluent_robot_at_r0_p0@0 () Bool)
(declare-fun fluent_robot_at_r0_p1@0 () Bool)
(declare-fun parameter_unload_at_depot_r@1 () Real)
(declare-fun fluent_robot_at_r0_p2@0 () Bool)
(declare-fun fluent_robot_free_r0@0 () Bool)
(declare-fun parameter_unload_at_depot_pallet@1 () Real)
(declare-fun fluent_pallet_at_plt0_p0@0 () Bool)
(declare-fun fluent_pallet_at_plt1_p0@0 () Bool)
(declare-fun fluent_pallet_at_plt0_p1@0 () Bool)
(declare-fun fluent_pallet_at_plt1_p1@0 () Bool)
(declare-fun fluent_pallet_at_plt0_p2@0 () Bool)
(declare-fun fluent_pallet_at_plt1_p2@0 () Bool)
(declare-fun fluent_battery_level_r0@0 () Real)
(declare-fun fluent_position_free_p0@0 () Bool)
(declare-fun fluent_position_free_p1@0 () Bool)
(declare-fun fluent_position_free_p2@0 () Bool)
(declare-fun dur_make_treatment@1 () Real)
(declare-fun fluent_robot_has_r0_plt0@0 () Bool)
(declare-fun fluent_robot_has_r0_plt1@0 () Bool)
(declare-fun t@1 () Real)
(declare-fun fluent_ready_plt0_p0_t0@0 () Bool)
(declare-fun fluent_ready_plt1_p0_t0@0 () Bool)
(declare-fun fluent_ready_plt0_p1_t0@0 () Bool)
(declare-fun fluent_ready_plt1_p1_t0@0 () Bool)
(declare-fun fluent_ready_plt0_p2_t0@0 () Bool)
(declare-fun fluent_ready_plt1_p2_t0@0 () Bool)
(declare-fun parameter_make_treatment_t@1 () Real)
(declare-fun parameter_make_treatment_pallet@1 () Real)
(declare-fun fluent_treated_plt0_t0@0 () Bool)
(declare-fun fluent_treated_plt1_t0@0 () Bool)
(declare-fun parameter_make_treatment_r@1 () Real)
(declare-fun parameter_make_treatment_pos@1 () Real)
(declare-fun act_move@1 () Bool)
(declare-fun parameter_move_topos@1 () Real)
(declare-fun parameter_move_frompos@1 () Real)
(declare-fun parameter_move_r@1 () Real)
(declare-fun fluent_robot_at_r0_p0@1 () Bool)
(declare-fun fluent_robot_at_r0_p1@1 () Bool)
(declare-fun fluent_robot_at_r0_p2@1 () Bool)
(declare-fun fluent_battery_level_r0@1 () Real)
(declare-fun act_make_treatment@1 () Bool)
(declare-fun act_load@1 () Bool)
(declare-fun parameter_load_t@1 () Real)
(declare-fun parameter_load_pos@1 () Real)
(declare-fun parameter_load_pallet@1 () Real)
(declare-fun parameter_load_r@1 () Real)
(declare-fun fluent_robot_free_r0@1 () Bool)
(declare-fun fluent_ready_plt0_p0_t0@1 () Bool)
(declare-fun fluent_ready_plt1_p0_t0@1 () Bool)
(declare-fun fluent_ready_plt0_p1_t0@1 () Bool)
(declare-fun fluent_ready_plt1_p1_t0@1 () Bool)
(declare-fun fluent_ready_plt0_p2_t0@1 () Bool)
(declare-fun fluent_ready_plt1_p2_t0@1 () Bool)
(declare-fun fluent_pallet_at_plt0_p0@1 () Bool)
(declare-fun fluent_pallet_at_plt1_p0@1 () Bool)
(declare-fun fluent_pallet_at_plt0_p1@1 () Bool)
(declare-fun fluent_pallet_at_plt1_p1@1 () Bool)
(declare-fun fluent_pallet_at_plt0_p2@1 () Bool)
(declare-fun fluent_pallet_at_plt1_p2@1 () Bool)
(declare-fun fluent_robot_has_r0_plt0@1 () Bool)
(declare-fun fluent_robot_has_r0_plt1@1 () Bool)
(declare-fun fluent_treated_plt0_t0@1 () Bool)
(declare-fun fluent_treated_plt1_t0@1 () Bool)
(declare-fun fluent_position_free_p0@1 () Bool)
(declare-fun fluent_position_free_p1@1 () Bool)
(declare-fun fluent_position_free_p2@1 () Bool)
(declare-fun act_load_at_depot@1 () Bool)
(declare-fun parameter_load_at_depot_pos@1 () Real)
(declare-fun parameter_load_at_depot_r@1 () Real)
(declare-fun parameter_load_at_depot_pallet@1 () Real)
(declare-fun act_unload_at_depot@1 () Bool)
(declare-fun parameter_unload_at_depot_pos@1 () Real)
(assert (let ((.def_0 (= parameter_load_t@1 6.0))) (let ((.def_1 (<= fluent_battery_level_r0@1 100.0))) (let ((.def_2 (<= 0.0 fluent_battery_level_r0@1))) (let ((.def_3 (= parameter_load_at_depot_pallet@1 5.0))) (let ((.def_4 (= parameter_load_at_depot_pallet@1 4.0))) (let ((.def_5 (or .def_4 .def_3))) (let ((.def_6 (= parameter_load_at_depot_r@1 0.0))) (let ((.def_7 (= parameter_load_at_depot_pos@1 3.0))) (let ((.def_8 (= parameter_load_at_depot_pos@1 2.0))) (let ((.def_9 (= parameter_load_at_depot_pos@1 1.0))) (let ((.def_10 (or .def_9 .def_8 .def_7))) (let ((.def_11 (= parameter_move_r@1 0.0))) (let ((.def_12 (= parameter_move_frompos@1 3.0))) (let ((.def_13 (= parameter_move_frompos@1 2.0))) (let ((.def_14 (= parameter_move_frompos@1 1.0))) (let ((.def_15 (or .def_14 .def_13 .def_12))) (let ((.def_16 (= parameter_move_topos@1 3.0))) (let ((.def_17 (= parameter_move_topos@1 2.0))) (let ((.def_18 (= parameter_move_topos@1 1.0))) (let ((.def_19 (or .def_18 .def_17 .def_16))) (let ((.def_20 (= parameter_make_treatment_pos@1 3.0))) (let ((.def_21 (= parameter_make_treatment_pos@1 2.0))) (let ((.def_22 (= parameter_make_treatment_pos@1 1.0))) (let ((.def_23 (or .def_22 .def_21 .def_20))) (let ((.def_24 (= parameter_make_treatment_r@1 0.0))) (let ((.def_25 (= parameter_make_treatment_pallet@1 5.0))) (let ((.def_26 (= parameter_make_treatment_pallet@1 4.0))) (let ((.def_27 (or .def_26 .def_25))) (let ((.def_28 (= parameter_make_treatment_t@1 6.0))) (let ((.def_29 (= parameter_load_r@1 0.0))) (let ((.def_30 (= parameter_unload_at_depot_pallet@1 5.0))) (let ((.def_31 (= parameter_unload_at_depot_pallet@1 4.0))) (let ((.def_32 (or .def_31 .def_30))) (let ((.def_33 (= parameter_load_pallet@1 5.0))) (let ((.def_34 (= parameter_load_pallet@1 4.0))) (let ((.def_35 (or .def_34 .def_33))) (let ((.def_36 (= parameter_unload_at_depot_r@1 0.0))) (let ((.def_37 (= parameter_load_pos@1 3.0))) (let ((.def_38 (= parameter_load_pos@1 2.0))) (let ((.def_39 (= parameter_load_pos@1 1.0))) (let ((.def_40 (or .def_39 .def_38 .def_37))) (let ((.def_41 (= parameter_unload_at_depot_pos@1 3.0))) (let ((.def_42 (= parameter_unload_at_depot_pos@1 2.0))) (let ((.def_43 (= parameter_unload_at_depot_pos@1 1.0))) (let ((.def_44 (or .def_43 .def_42 .def_41))) (let ((.def_45 (and act_move@1 true .def_11))) (let ((.def_46 (= fluent_battery_level_r0@0 fluent_battery_level_r0@1))) (let ((.def_47 (not .def_46))) (let ((.def_48 (=> .def_47 .def_45))) (let ((.def_49 (and act_make_treatment@1 true .def_25 .def_20))) (let ((.def_50 (and act_unload_at_depot@1 true .def_30 .def_41))) (let ((.def_51 (and .def_50 .def_49))) (let ((.def_52 (not .def_51))) (let ((.def_53 (and act_load_at_depot@1 true .def_3 .def_7))) (let ((.def_54 (and .def_53 .def_49))) (let ((.def_55 (not .def_54))) (let ((.def_56 (and .def_53 .def_50))) (let ((.def_57 (not .def_56))) (let ((.def_58 (and act_load@1 true .def_33 .def_37))) (let ((.def_59 (and .def_58 .def_49))) (let ((.def_60 (not .def_59))) (let ((.def_61 (and .def_58 .def_50))) (let ((.def_62 (not .def_61))) (let ((.def_63 (and .def_58 .def_53))) (let ((.def_64 (not .def_63))) (let ((.def_65 (or .def_58 .def_53 .def_50 .def_49))) (let ((.def_66 (= fluent_pallet_at_plt1_p2@0 fluent_pallet_at_plt1_p2@1))) (let ((.def_67 (not .def_66))) (let ((.def_68 (=> .def_67 .def_65))) (let ((.def_69 (and act_make_treatment@1 true .def_26 .def_20))) (let ((.def_70 (and act_unload_at_depot@1 true .def_31 .def_41))) (let ((.def_71 (and .def_70 .def_69))) (let ((.def_72 (not .def_71))) (let ((.def_73 (and act_load_at_depot@1 true .def_4 .def_7))) (let ((.def_74 (and .def_73 .def_69))) (let ((.def_75 (not .def_74))) (let ((.def_76 (and .def_73 .def_70))) (let ((.def_77 (not .def_76))) (let ((.def_78 (and act_load@1 true .def_34 .def_37))) (let ((.def_79 (and .def_78 .def_69))) (let ((.def_80 (not .def_79))) (let ((.def_81 (and .def_78 .def_70))) (let ((.def_82 (not .def_81))) (let ((.def_83 (and .def_78 .def_73))) (let ((.def_84 (not .def_83))) (let ((.def_85 (or .def_78 .def_73 .def_70 .def_69))) (let ((.def_86 (= fluent_pallet_at_plt0_p2@0 fluent_pallet_at_plt0_p2@1))) (let ((.def_87 (not .def_86))) (let ((.def_88 (=> .def_87 .def_85))) (let ((.def_89 (and act_make_treatment@1 true .def_25 .def_21))) (let ((.def_90 (and act_unload_at_depot@1 true .def_30 .def_42))) (let ((.def_91 (and .def_90 .def_89))) (let ((.def_92 (not .def_91))) (let ((.def_93 (and act_load_at_depot@1 true .def_3 .def_8))) (let ((.def_94 (and .def_93 .def_89))) (let ((.def_95 (not .def_94))) (let ((.def_96 (and .def_93 .def_90))) (let ((.def_97 (not .def_96))) (let ((.def_98 (and act_load@1 true .def_33 .def_38))) (let ((.def_99 (and .def_98 .def_89))) (let ((.def_100 (not .def_99))) (let ((.def_101 (and .def_98 .def_90))) (let ((.def_102 (not .def_101))) (let ((.def_103 (and .def_98 .def_93))) (let ((.def_104 (not .def_103))) (let ((.def_105 (or .def_98 .def_93 .def_90 .def_89))) (let ((.def_106 (= fluent_pallet_at_plt1_p1@0 fluent_pallet_at_plt1_p1@1))) (let ((.def_107 (not .def_106))) (let ((.def_108 (=> .def_107 .def_105))) (let ((.def_109 (and act_make_treatment@1 true .def_26 .def_21))) (let ((.def_110 (and act_unload_at_depot@1 true .def_31 .def_42))) (let ((.def_111 (and .def_110 .def_109))) (let ((.def_112 (not .def_111))) (let ((.def_113 (and act_load_at_depot@1 true .def_4 .def_8))) (let ((.def_114 (and .def_113 .def_109))) (let ((.def_115 (not .def_114))) (let ((.def_116 (and .def_113 .def_110))) (let ((.def_117 (not .def_116))) (let ((.def_118 (and act_load@1 true .def_34 .def_38))) (let ((.def_119 (and .def_118 .def_109))) (let ((.def_120 (not .def_119))) (let ((.def_121 (and .def_118 .def_110))) (let ((.def_122 (not .def_121))) (let ((.def_123 (and .def_118 .def_113))) (let ((.def_124 (not .def_123))) (let ((.def_125 (or .def_118 .def_113 .def_110 .def_109))) (let ((.def_126 (= fluent_pallet_at_plt0_p1@0 fluent_pallet_at_plt0_p1@1))) (let ((.def_127 (not .def_126))) (let ((.def_128 (=> .def_127 .def_125))) (let ((.def_129 (and act_make_treatment@1 true .def_25 .def_22))) (let ((.def_130 (and act_unload_at_depot@1 true .def_30 .def_43))) (let ((.def_131 (and .def_130 .def_129))) (let ((.def_132 (not .def_131))) (let ((.def_133 (and act_load_at_depot@1 true .def_3 .def_9))) (let ((.def_134 (and .def_133 .def_129))) (let ((.def_135 (not .def_134))) (let ((.def_136 (and .def_133 .def_130))) (let ((.def_137 (not .def_136))) (let ((.def_138 (and act_load@1 true .def_33 .def_39))) (let ((.def_139 (and .def_138 .def_129))) (let ((.def_140 (not .def_139))) (let ((.def_141 (and .def_138 .def_130))) (let ((.def_142 (not .def_141))) (let ((.def_143 (and .def_138 .def_133))) (let ((.def_144 (not .def_143))) (let ((.def_145 (or .def_138 .def_133 .def_130 .def_129))) (let ((.def_146 (= fluent_pallet_at_plt1_p0@0 fluent_pallet_at_plt1_p0@1))) (let ((.def_147 (not .def_146))) (let ((.def_148 (=> .def_147 .def_145))) (let ((.def_149 (and act_make_treatment@1 true .def_26 .def_22))) (let ((.def_150 (and act_unload_at_depot@1 true .def_31 .def_43))) (let ((.def_151 (and .def_150 .def_149))) (let ((.def_152 (not .def_151))) (let ((.def_153 (and act_load_at_depot@1 true .def_4 .def_9))) (let ((.def_154 (and .def_153 .def_149))) (let ((.def_155 (not .def_154))) (let ((.def_156 (and .def_153 .def_150))) (let ((.def_157 (not .def_156))) (let ((.def_158 (and act_load@1 true .def_34 .def_39))) (let ((.def_159 (and .def_158 .def_149))) (let ((.def_160 (not .def_159))) (let ((.def_161 (and .def_158 .def_150))) (let ((.def_162 (not .def_161))) (let ((.def_163 (and .def_158 .def_153))) (let ((.def_164 (not .def_163))) (let ((.def_165 (or .def_158 .def_153 .def_150 .def_149))) (let ((.def_166 (= fluent_pallet_at_plt0_p0@0 fluent_pallet_at_plt0_p0@1))) (let ((.def_167 (not .def_166))) (let ((.def_168 (=> .def_167 .def_165))) (let ((.def_169 (and act_load@1 true .def_33 .def_0))) (let ((.def_170 (= fluent_treated_plt1_t0@0 fluent_treated_plt1_t0@1))) (let ((.def_171 (not .def_170))) (let ((.def_172 (=> .def_171 .def_169))) (let ((.def_173 (and act_load@1 true .def_34 .def_0))) (let ((.def_174 (= fluent_treated_plt0_t0@0 fluent_treated_plt0_t0@1))) (let ((.def_175 (not .def_174))) (let ((.def_176 (=> .def_175 .def_173))) (let ((.def_177 (and act_make_treatment@1 true .def_20))) (let ((.def_178 (and act_load@1 true .def_37))) (let ((.def_179 (and .def_178 .def_177))) (let ((.def_180 (not .def_179))) (let ((.def_181 (or .def_178 .def_177))) (let ((.def_182 (= fluent_position_free_p2@0 fluent_position_free_p2@1))) (let ((.def_183 (not .def_182))) (let ((.def_184 (=> .def_183 .def_181))) (let ((.def_185 (and act_make_treatment@1 true .def_21))) (let ((.def_186 (and act_load@1 true .def_38))) (let ((.def_187 (and .def_186 .def_185))) (let ((.def_188 (not .def_187))) (let ((.def_189 (or .def_186 .def_185))) (let ((.def_190 (= fluent_position_free_p1@0 fluent_position_free_p1@1))) (let ((.def_191 (not .def_190))) (let ((.def_192 (=> .def_191 .def_189))) (let ((.def_193 (and act_make_treatment@1 true .def_22))) (let ((.def_194 (and act_load@1 true .def_39))) (let ((.def_195 (and .def_194 .def_193))) (let ((.def_196 (not .def_195))) (let ((.def_197 (or .def_194 .def_193))) (let ((.def_198 (= fluent_position_free_p0@0 fluent_position_free_p0@1))) (let ((.def_199 (not .def_198))) (let ((.def_200 (=> .def_199 .def_197))) (let ((.def_201 (+ t@1 10.0))) (let ((.def_202 (= t@1 .def_201))) (let ((.def_203 (and act_make_treatment@1 true .def_202 .def_25 .def_20 .def_28))) (let ((.def_204 (and act_load@1 true .def_33 .def_37 .def_0))) (let ((.def_205 (and .def_204 .def_203))) (let ((.def_206 (not .def_205))) (let ((.def_207 (or .def_204 .def_203))) (let ((.def_208 (= fluent_ready_plt1_p2_t0@0 fluent_ready_plt1_p2_t0@1))) (let ((.def_209 (not .def_208))) (let ((.def_210 (=> .def_209 .def_207))) (let ((.def_211 (and act_make_treatment@1 true .def_202 .def_26 .def_20 .def_28))) (let ((.def_212 (and act_load@1 true .def_34 .def_37 .def_0))) (let ((.def_213 (and .def_212 .def_211))) (let ((.def_214 (not .def_213))) (let ((.def_215 (or .def_212 .def_211))) (let ((.def_216 (= fluent_ready_plt0_p2_t0@0 fluent_ready_plt0_p2_t0@1))) (let ((.def_217 (not .def_216))) (let ((.def_218 (=> .def_217 .def_215))) (let ((.def_219 (and act_make_treatment@1 true .def_202 .def_25 .def_21 .def_28))) (let ((.def_220 (and act_load@1 true .def_33 .def_38 .def_0))) (let ((.def_221 (and .def_220 .def_219))) (let ((.def_222 (not .def_221))) (let ((.def_223 (or .def_220 .def_219))) (let ((.def_224 (= fluent_ready_plt1_p1_t0@0 fluent_ready_plt1_p1_t0@1))) (let ((.def_225 (not .def_224))) (let ((.def_226 (=> .def_225 .def_223))) (let ((.def_227 (and act_make_treatment@1 true .def_202 .def_26 .def_21 .def_28))) (let ((.def_228 (and act_load@1 true .def_34 .def_38 .def_0))) (let ((.def_229 (and .def_228 .def_227))) (let ((.def_230 (not .def_229))) (let ((.def_231 (or .def_228 .def_227))) (let ((.def_232 (= fluent_ready_plt0_p1_t0@0 fluent_ready_plt0_p1_t0@1))) (let ((.def_233 (not .def_232))) (let ((.def_234 (=> .def_233 .def_231))) (let ((.def_235 (and act_make_treatment@1 true .def_202 .def_25 .def_22 .def_28))) (let ((.def_236 (and act_load@1 true .def_33 .def_39 .def_0))) (let ((.def_237 (and .def_236 .def_235))) (let ((.def_238 (not .def_237))) (let ((.def_239 (or .def_236 .def_235))) (let ((.def_240 (= fluent_ready_plt1_p0_t0@0 fluent_ready_plt1_p0_t0@1))) (let ((.def_241 (not .def_240))) (let ((.def_242 (=> .def_241 .def_239))) (let ((.def_243 (and act_make_treatment@1 true .def_202 .def_26 .def_22 .def_28))) (let ((.def_244 (and act_load@1 true .def_34 .def_39 .def_0))) (let ((.def_245 (and .def_244 .def_243))) (let ((.def_246 (not .def_245))) (let ((.def_247 (or .def_244 .def_243))) (let ((.def_248 (= fluent_ready_plt0_p0_t0@0 fluent_ready_plt0_p0_t0@1))) (let ((.def_249 (not .def_248))) (let ((.def_250 (=> .def_249 .def_247))) (let ((.def_251 (and act_make_treatment@1 true .def_24 .def_25))) (let ((.def_252 (and act_unload_at_depot@1 true .def_36 .def_30))) (let ((.def_253 (and .def_252 .def_251))) (let ((.def_254 (not .def_253))) (let ((.def_255 (and act_load_at_depot@1 true .def_6 .def_3))) (let ((.def_256 (and .def_255 .def_251))) (let ((.def_257 (not .def_256))) (let ((.def_258 (and .def_255 .def_252))) (let ((.def_259 (not .def_258))) (let ((.def_260 (and act_load@1 true .def_29 .def_33))) (let ((.def_261 (and .def_260 .def_251))) (let ((.def_262 (not .def_261))) (let ((.def_263 (and .def_260 .def_252))) (let ((.def_264 (not .def_263))) (let ((.def_265 (and .def_260 .def_255))) (let ((.def_266 (not .def_265))) (let ((.def_267 (or .def_260 .def_255 .def_252 .def_251))) (let ((.def_268 (= fluent_robot_has_r0_plt1@0 fluent_robot_has_r0_plt1@1))) (let ((.def_269 (not .def_268))) (let ((.def_270 (=> .def_269 .def_267))) (let ((.def_271 (and act_make_treatment@1 true .def_24 .def_26))) (let ((.def_272 (and act_unload_at_depot@1 true .def_36 .def_31))) (let ((.def_273 (and .def_272 .def_271))) (let ((.def_274 (not .def_273))) (let ((.def_275 (and act_load_at_depot@1 true .def_6 .def_4))) (let ((.def_276 (and .def_275 .def_271))) (let ((.def_277 (not .def_276))) (let ((.def_278 (and .def_275 .def_272))) (let ((.def_279 (not .def_278))) (let ((.def_280 (and act_load@1 true .def_29 .def_34))) (let ((.def_281 (and .def_280 .def_271))) (let ((.def_282 (not .def_281))) (let ((.def_283 (and .def_280 .def_272))) (let ((.def_284 (not .def_283))) (let ((.def_285 (and .def_280 .def_275))) (let ((.def_286 (not .def_285))) (let ((.def_287 (or .def_280 .def_275 .def_272 .def_271))) (let ((.def_288 (= fluent_robot_has_r0_plt0@0 fluent_robot_has_r0_plt0@1))) (let ((.def_289 (not .def_288))) (let ((.def_290 (=> .def_289 .def_287))) (let ((.def_291 (and act_make_treatment@1 true .def_24))) (let ((.def_292 (and act_unload_at_depot@1 true .def_36))) (let ((.def_293 (and .def_292 .def_291))) (let ((.def_294 (not .def_293))) (let ((.def_295 (and act_load_at_depot@1 true .def_6))) (let ((.def_296 (and .def_295 .def_291))) (let ((.def_297 (not .def_296))) (let ((.def_298 (and .def_295 .def_292))) (let ((.def_299 (not .def_298))) (let ((.def_300 (and act_load@1 true .def_29))) (let ((.def_301 (and .def_300 .def_291))) (let ((.def_302 (not .def_301))) (let ((.def_303 (and .def_300 .def_292))) (let ((.def_304 (not .def_303))) (let ((.def_305 (and .def_300 .def_295))) (let ((.def_306 (not .def_305))) (let ((.def_307 (or .def_300 .def_295 .def_292 .def_291))) (let ((.def_308 (= fluent_robot_free_r0@0 fluent_robot_free_r0@1))) (let ((.def_309 (not .def_308))) (let ((.def_310 (=> .def_309 .def_307))) (let ((.def_311 (and act_move@1 true .def_11 .def_12))) (let ((.def_312 (and act_move@1 true .def_11 .def_16))) (let ((.def_313 (and .def_312 .def_311))) (let ((.def_314 (not .def_313))) (let ((.def_315 (or .def_312 .def_311))) (let ((.def_316 (= fluent_robot_at_r0_p2@0 fluent_robot_at_r0_p2@1))) (let ((.def_317 (not .def_316))) (let ((.def_318 (=> .def_317 .def_315))) (let ((.def_319 (and act_move@1 true .def_11 .def_13))) (let ((.def_320 (and act_move@1 true .def_11 .def_17))) (let ((.def_321 (and .def_320 .def_319))) (let ((.def_322 (not .def_321))) (let ((.def_323 (or .def_320 .def_319))) (let ((.def_324 (= fluent_robot_at_r0_p1@0 fluent_robot_at_r0_p1@1))) (let ((.def_325 (not .def_324))) (let ((.def_326 (=> .def_325 .def_323))) (let ((.def_327 (and act_move@1 true .def_11 .def_14))) (let ((.def_328 (and act_move@1 true .def_11 .def_18))) (let ((.def_329 (and .def_328 .def_327))) (let ((.def_330 (not .def_329))) (let ((.def_331 (or .def_328 .def_327))) (let ((.def_332 (= fluent_robot_at_r0_p0@0 fluent_robot_at_r0_p0@1))) (let ((.def_333 (not .def_332))) (let ((.def_334 (=> .def_333 .def_331))) (let ((.def_335 (and .def_334 .def_330 .def_326 .def_322 .def_318 .def_314 .def_310 .def_306 .def_304 .def_302 .def_299 .def_297 .def_294 .def_290 .def_286 .def_284 .def_282 .def_279 .def_277 .def_274 .def_270 .def_266 .def_264 .def_262 .def_259 .def_257 .def_254 .def_250 .def_246 .def_242 .def_238 .def_234 .def_230 .def_226 .def_222 .def_218 .def_214 .def_210 .def_206 .def_200 .def_196 .def_192 .def_188 .def_184 .def_180 .def_176 .def_172 .def_168 .def_164 .def_162 .def_160 .def_157 .def_155 .def_152 .def_148 .def_144 .def_142 .def_140 .def_137 .def_135 .def_132 .def_128 .def_124 .def_122 .def_120 .def_117 .def_115 .def_112 .def_108 .def_104 .def_102 .def_100 .def_97 .def_95 .def_92 .def_88 .def_84 .def_82 .def_80 .def_77 .def_75 .def_72 .def_68 .def_64 .def_62 .def_60 .def_57 .def_55 .def_52 .def_48))) (let ((.def_336 (= t@1 t@1))) (let ((.def_337 (and act_make_treatment@1 act_move@1 .def_336))) (let ((.def_338 (not .def_337))) (let ((.def_339 (and act_load@1 act_make_treatment@1 .def_202))) (let ((.def_340 (not .def_339))) (let ((.def_341 (and act_unload_at_depot@1 act_load_at_depot@1 .def_336))) (let ((.def_342 (not .def_341))) (let ((.def_343 (+ t@1 dur_make_treatment@1))) (let ((.def_344 (= t@1 .def_343))) (let ((.def_345 (and act_load@1 act_make_treatment@1 .def_344))) (let ((.def_346 (not .def_345))) (let ((.def_347 (and act_load@1 act_make_treatment@1 .def_336))) (let ((.def_348 (not .def_347))) (let ((.def_349 (and act_load@1 act_move@1 .def_336))) (let ((.def_350 (not .def_349))) (let ((.def_351 (and act_load_at_depot@1 act_make_treatment@1 .def_336))) (let ((.def_352 (not .def_351))) (let ((.def_353 (and act_load_at_depot@1 act_move@1 .def_336))) (let ((.def_354 (not .def_353))) (let ((.def_355 (and act_unload_at_depot@1 act_move@1 .def_336))) (let ((.def_356 (not .def_355))) (let ((.def_357 (and act_unload_at_depot@1 act_make_treatment@1 .def_336))) (let ((.def_358 (not .def_357))) (let ((.def_359 (and act_unload_at_depot@1 act_load@1 .def_336))) (let ((.def_360 (not .def_359))) (let ((.def_361 (and act_load@1 act_load_at_depot@1 .def_336))) (let ((.def_362 (not .def_361))) (let ((.def_363 (and .def_362 .def_360 .def_358 .def_356 .def_354 .def_352 .def_350 .def_348 .def_346 .def_342 .def_340 .def_338))) (let ((.def_364 (<= 0.0 t@1))) (let ((.def_365 (and .def_25 .def_22 .def_28))) (let ((.def_366 (ite .def_365 fluent_ready_plt1_p0_t0@1 fluent_ready_plt0_p0_t0@1))) (let ((.def_367 (and .def_26 .def_21 .def_28))) (let ((.def_368 (ite .def_367 fluent_ready_plt0_p1_t0@1 .def_366))) (let ((.def_369 (and .def_25 .def_21 .def_28))) (let ((.def_370 (ite .def_369 fluent_ready_plt1_p1_t0@1 .def_368))) (let ((.def_371 (and .def_26 .def_20 .def_28))) (let ((.def_372 (ite .def_371 fluent_ready_plt0_p2_t0@1 .def_370))) (let ((.def_373 (and .def_25 .def_20 .def_28))) (let ((.def_374 (ite .def_373 fluent_ready_plt1_p2_t0@1 .def_372))) (let ((.def_375 (= .def_374 true))) (let ((.def_376 (=> true .def_375))) (let ((.def_377 (and .def_202 .def_376))) (let ((.def_378 (= fluent_robot_free_r0@1 true))) (let ((.def_379 (=> true .def_378))) (let ((.def_380 (and .def_25 .def_22))) (let ((.def_381 (ite .def_380 fluent_pallet_at_plt1_p0@1 fluent_pallet_at_plt0_p0@1))) (let ((.def_382 (and .def_26 .def_21))) (let ((.def_383 (ite .def_382 fluent_pallet_at_plt0_p1@1 .def_381))) (let ((.def_384 (and .def_25 .def_21))) (let ((.def_385 (ite .def_384 fluent_pallet_at_plt1_p1@1 .def_383))) (let ((.def_386 (and .def_26 .def_20))) (let ((.def_387 (ite .def_386 fluent_pallet_at_plt0_p2@1 .def_385))) (let ((.def_388 (and .def_25 .def_20))) (let ((.def_389 (ite .def_388 fluent_pallet_at_plt1_p2@1 .def_387))) (let ((.def_390 (= .def_389 true))) (let ((.def_391 (=> true .def_390))) (let ((.def_392 (and .def_24 .def_25))) (let ((.def_393 (ite .def_392 fluent_robot_has_r0_plt1@1 fluent_robot_has_r0_plt0@1))) (let ((.def_394 (= .def_393 false))) (let ((.def_395 (=> true .def_394))) (let ((.def_396 (ite .def_21 fluent_position_free_p1@1 fluent_position_free_p0@1))) (let ((.def_397 (ite .def_20 fluent_position_free_p2@1 .def_396))) (let ((.def_398 (= .def_397 false))) (let ((.def_399 (=> true .def_398))) (let ((.def_400 (and .def_336 .def_399 .def_395 .def_391 .def_379))) (let ((.def_401 (ite .def_21 fluent_position_free_p1@0 fluent_position_free_p0@0))) (let ((.def_402 (ite .def_20 fluent_position_free_p2@0 .def_401))) (let ((.def_403 (and .def_25 .def_28))) (let ((.def_404 (ite .def_403 fluent_treated_plt1_t0@0 fluent_treated_plt0_t0@0))) (let ((.def_405 (and .def_404 .def_402))) (let ((.def_406 (<= .def_343 t@1))) (let ((.def_407 (< (- 1.0) .def_343))) (let ((.def_408 (and .def_407 .def_406))) (let ((.def_409 (=> .def_408 .def_405))) (let ((.def_410 (not .def_404))) (let ((.def_411 (ite .def_392 fluent_robot_has_r0_plt1@0 fluent_robot_has_r0_plt0@0))) (let ((.def_412 (and .def_24 .def_21))) (let ((.def_413 (ite .def_412 fluent_robot_at_r0_p1@0 fluent_robot_at_r0_p0@0))) (let ((.def_414 (and .def_24 .def_20))) (let ((.def_415 (ite .def_414 fluent_robot_at_r0_p2@0 .def_413))) (let ((.def_416 (and .def_21 .def_28))) (let ((.def_417 (ite .def_416 false true))) (let ((.def_418 (and .def_20 .def_28))) (let ((.def_419 (ite .def_418 false .def_417))) (let ((.def_420 (and .def_419 .def_402 .def_415 .def_411 .def_410))) (let ((.def_421 (<= t@1 t@1))) (let ((.def_422 (< (- 1.0) t@1))) (let ((.def_423 (and .def_422 .def_421))) (let ((.def_424 (=> .def_423 .def_420))) (let ((.def_425 (<= dur_make_treatment@1 20.0))) (let ((.def_426 (<= 20.0 dur_make_treatment@1))) (let ((.def_427 (and .def_426 .def_425))) (let ((.def_428 (and .def_427 .def_406 .def_424 .def_409 .def_400 .def_377))) (let ((.def_429 (=> act_make_treatment@1 .def_428))) (let ((.def_430 (and .def_36 .def_30))) (let ((.def_431 (ite .def_430 fluent_robot_has_r0_plt1@1 fluent_robot_has_r0_plt0@1))) (let ((.def_432 (= .def_431 false))) (let ((.def_433 (=> true .def_432))) (let ((.def_434 (and .def_30 .def_43))) (let ((.def_435 (ite .def_434 fluent_pallet_at_plt1_p0@1 fluent_pallet_at_plt0_p0@1))) (let ((.def_436 (and .def_31 .def_42))) (let ((.def_437 (ite .def_436 fluent_pallet_at_plt0_p1@1 .def_435))) (let ((.def_438 (and .def_30 .def_42))) (let ((.def_439 (ite .def_438 fluent_pallet_at_plt1_p1@1 .def_437))) (let ((.def_440 (and .def_31 .def_41))) (let ((.def_441 (ite .def_440 fluent_pallet_at_plt0_p2@1 .def_439))) (let ((.def_442 (and .def_30 .def_41))) (let ((.def_443 (ite .def_442 fluent_pallet_at_plt1_p2@1 .def_441))) (let ((.def_444 (= .def_443 true))) (let ((.def_445 (=> true .def_444))) (let ((.def_446 (ite .def_430 fluent_robot_has_r0_plt1@0 fluent_robot_has_r0_plt0@0))) (let ((.def_447 (and .def_36 .def_42))) (let ((.def_448 (ite .def_447 fluent_robot_at_r0_p1@0 fluent_robot_at_r0_p0@0))) (let ((.def_449 (and .def_36 .def_41))) (let ((.def_450 (ite .def_449 fluent_robot_at_r0_p2@0 .def_448))) (let ((.def_451 (ite .def_42 false false))) (let ((.def_452 (ite .def_41 true .def_451))) (let ((.def_453 (and .def_452 .def_450 .def_446 .def_445 .def_379 .def_433))) (let ((.def_454 (=> act_unload_at_depot@1 .def_453))) (let ((.def_455 (and .def_3 .def_9))) (let ((.def_456 (ite .def_455 fluent_pallet_at_plt1_p0@1 fluent_pallet_at_plt0_p0@1))) (let ((.def_457 (and .def_4 .def_8))) (let ((.def_458 (ite .def_457 fluent_pallet_at_plt0_p1@1 .def_456))) (let ((.def_459 (and .def_3 .def_8))) (let ((.def_460 (ite .def_459 fluent_pallet_at_plt1_p1@1 .def_458))) (let ((.def_461 (and .def_4 .def_7))) (let ((.def_462 (ite .def_461 fluent_pallet_at_plt0_p2@1 .def_460))) (let ((.def_463 (and .def_3 .def_7))) (let ((.def_464 (ite .def_463 fluent_pallet_at_plt1_p2@1 .def_462))) (let ((.def_465 (= .def_464 false))) (let ((.def_466 (=> true .def_465))) (let ((.def_467 (and .def_6 .def_3))) (let ((.def_468 (ite .def_467 fluent_robot_has_r0_plt1@1 fluent_robot_has_r0_plt0@1))) (let ((.def_469 (= .def_468 true))) (let ((.def_470 (=> true .def_469))) (let ((.def_471 (= fluent_robot_free_r0@1 false))) (let ((.def_472 (=> true .def_471))) (let ((.def_473 (ite .def_455 fluent_pallet_at_plt1_p0@0 fluent_pallet_at_plt0_p0@0))) (let ((.def_474 (ite .def_457 fluent_pallet_at_plt0_p1@0 .def_473))) (let ((.def_475 (ite .def_459 fluent_pallet_at_plt1_p1@0 .def_474))) (let ((.def_476 (ite .def_461 fluent_pallet_at_plt0_p2@0 .def_475))) (let ((.def_477 (ite .def_463 fluent_pallet_at_plt1_p2@0 .def_476))) (let ((.def_478 (and .def_6 .def_8))) (let ((.def_479 (ite .def_478 fluent_robot_at_r0_p1@0 fluent_robot_at_r0_p0@0))) (let ((.def_480 (and .def_6 .def_7))) (let ((.def_481 (ite .def_480 fluent_robot_at_r0_p2@0 .def_479))) (let ((.def_482 (ite .def_8 false false))) (let ((.def_483 (ite .def_7 true .def_482))) (let ((.def_484 (and .def_483 .def_481 fluent_robot_free_r0@0 .def_477 .def_472 .def_470 .def_466))) (let ((.def_485 (=> act_load_at_depot@1 .def_484))) (let ((.def_486 (ite .def_38 fluent_position_free_p1@1 fluent_position_free_p0@1))) (let ((.def_487 (ite .def_37 fluent_position_free_p2@1 .def_486))) (let ((.def_488 (= .def_487 true))) (let ((.def_489 (=> true .def_488))) (let ((.def_490 (and .def_33 .def_0))) (let ((.def_491 (ite .def_490 fluent_treated_plt1_t0@1 fluent_treated_plt0_t0@1))) (let ((.def_492 (= .def_491 true))) (let ((.def_493 (=> true .def_492))) (let ((.def_494 (and .def_29 .def_33))) (let ((.def_495 (ite .def_494 fluent_robot_has_r0_plt1@1 fluent_robot_has_r0_plt0@1))) (let ((.def_496 (= .def_495 true))) (let ((.def_497 (=> true .def_496))) (let ((.def_498 (and .def_33 .def_39))) (let ((.def_499 (ite .def_498 fluent_pallet_at_plt1_p0@1 fluent_pallet_at_plt0_p0@1))) (let ((.def_500 (and .def_34 .def_38))) (let ((.def_501 (ite .def_500 fluent_pallet_at_plt0_p1@1 .def_499))) (let ((.def_502 (and .def_33 .def_38))) (let ((.def_503 (ite .def_502 fluent_pallet_at_plt1_p1@1 .def_501))) (let ((.def_504 (and .def_34 .def_37))) (let ((.def_505 (ite .def_504 fluent_pallet_at_plt0_p2@1 .def_503))) (let ((.def_506 (and .def_33 .def_37))) (let ((.def_507 (ite .def_506 fluent_pallet_at_plt1_p2@1 .def_505))) (let ((.def_508 (= .def_507 false))) (let ((.def_509 (=> true .def_508))) (let ((.def_510 (and .def_33 .def_39 .def_0))) (let ((.def_511 (ite .def_510 fluent_ready_plt1_p0_t0@1 fluent_ready_plt0_p0_t0@1))) (let ((.def_512 (and .def_34 .def_38 .def_0))) (let ((.def_513 (ite .def_512 fluent_ready_plt0_p1_t0@1 .def_511))) (let ((.def_514 (and .def_33 .def_38 .def_0))) (let ((.def_515 (ite .def_514 fluent_ready_plt1_p1_t0@1 .def_513))) (let ((.def_516 (and .def_34 .def_37 .def_0))) (let ((.def_517 (ite .def_516 fluent_ready_plt0_p2_t0@1 .def_515))) (let ((.def_518 (and .def_33 .def_37 .def_0))) (let ((.def_519 (ite .def_518 fluent_ready_plt1_p2_t0@1 .def_517))) (let ((.def_520 (= .def_519 false))) (let ((.def_521 (=> true .def_520))) (let ((.def_522 (ite .def_498 fluent_pallet_at_plt1_p0@0 fluent_pallet_at_plt0_p0@0))) (let ((.def_523 (ite .def_500 fluent_pallet_at_plt0_p1@0 .def_522))) (let ((.def_524 (ite .def_502 fluent_pallet_at_plt1_p1@0 .def_523))) (let ((.def_525 (ite .def_504 fluent_pallet_at_plt0_p2@0 .def_524))) (let ((.def_526 (ite .def_506 fluent_pallet_at_plt1_p2@0 .def_525))) (let ((.def_527 (and .def_29 .def_38))) (let ((.def_528 (ite .def_527 fluent_robot_at_r0_p1@0 fluent_robot_at_r0_p0@0))) (let ((.def_529 (and .def_29 .def_37))) (let ((.def_530 (ite .def_529 fluent_robot_at_r0_p2@0 .def_528))) (let ((.def_531 (ite .def_510 fluent_ready_plt1_p0_t0@0 fluent_ready_plt0_p0_t0@0))) (let ((.def_532 (ite .def_512 fluent_ready_plt0_p1_t0@0 .def_531))) (let ((.def_533 (ite .def_514 fluent_ready_plt1_p1_t0@0 .def_532))) (let ((.def_534 (ite .def_516 fluent_ready_plt0_p2_t0@0 .def_533))) (let ((.def_535 (ite .def_518 fluent_ready_plt1_p2_t0@0 .def_534))) (let ((.def_536 (and .def_535 .def_530 fluent_robot_free_r0@0 .def_526 .def_472 .def_521 .def_509 .def_497 .def_493 .def_489))) (let ((.def_537 (=> act_load@1 .def_536))) (let ((.def_538 (and .def_13 .def_18))) (let ((.def_539 (ite .def_538 1.0 0.0))) (let ((.def_540 (and .def_12 .def_18))) (let ((.def_541 (ite .def_540 2.0 .def_539))) (let ((.def_542 (and .def_14 .def_17))) (let ((.def_543 (ite .def_542 1.0 .def_541))) (let ((.def_544 (and .def_13 .def_17))) (let ((.def_545 (ite .def_544 0.0 .def_543))) (let ((.def_546 (and .def_12 .def_17))) (let ((.def_547 (ite .def_546 1.0 .def_545))) (let ((.def_548 (and .def_14 .def_16))) (let ((.def_549 (ite .def_548 2.0 .def_547))) (let ((.def_550 (and .def_13 .def_16))) (let ((.def_551 (ite .def_550 1.0 .def_549))) (let ((.def_552 (and .def_12 .def_16))) (let ((.def_553 (ite .def_552 0.0 .def_551))) (let ((.def_554 (- fluent_battery_level_r0@0 .def_553))) (let ((.def_555 (= fluent_battery_level_r0@1 .def_554))) (let ((.def_556 (=> true .def_555))) (let ((.def_557 (and .def_11 .def_13))) (let ((.def_558 (ite .def_557 fluent_robot_at_r0_p1@1 fluent_robot_at_r0_p0@1))) (let ((.def_559 (and .def_11 .def_12))) (let ((.def_560 (ite .def_559 fluent_robot_at_r0_p2@1 .def_558))) (let ((.def_561 (= .def_560 false))) (let ((.def_562 (=> true .def_561))) (let ((.def_563 (and .def_11 .def_17))) (let ((.def_564 (ite .def_563 fluent_robot_at_r0_p1@1 fluent_robot_at_r0_p0@1))) (let ((.def_565 (and .def_11 .def_16))) (let ((.def_566 (ite .def_565 fluent_robot_at_r0_p2@1 .def_564))) (let ((.def_567 (= .def_566 true))) (let ((.def_568 (=> true .def_567))) (let ((.def_569 (<= .def_553 fluent_battery_level_r0@0))) (let ((.def_570 (ite .def_557 fluent_robot_at_r0_p1@0 fluent_robot_at_r0_p0@0))) (let ((.def_571 (ite .def_559 fluent_robot_at_r0_p2@0 .def_570))) (let ((.def_572 (= parameter_move_frompos@1 parameter_move_topos@1))) (let ((.def_573 (not .def_572))) (let ((.def_574 (and .def_573 .def_571 .def_569 .def_568 .def_562 .def_556))) (let ((.def_575 (=> act_move@1 .def_574))) (let ((.def_576 (<= fluent_battery_level_r0@0 100.0))) (let ((.def_577 (<= 0.0 fluent_battery_level_r0@0))) (let ((.def_578 (= false false))) (let ((.def_579 (= fluent_pallet_at_plt1_p1@0 false))) (let ((.def_580 (= fluent_pallet_at_plt0_p1@0 false))) (let ((.def_581 (= fluent_pallet_at_plt1_p0@0 false))) (let ((.def_582 (= fluent_pallet_at_plt0_p0@0 false))) (let ((.def_583 (= fluent_treated_plt1_t0@0 false))) (let ((.def_584 (= fluent_treated_plt0_t0@0 false))) (let ((.def_585 (= fluent_ready_plt1_p2_t0@0 false))) (let ((.def_586 (= fluent_ready_plt0_p2_t0@0 false))) (let ((.def_587 (= fluent_ready_plt1_p1_t0@0 false))) (let ((.def_588 (= fluent_ready_plt0_p1_t0@0 false))) (let ((.def_589 (= fluent_ready_plt1_p0_t0@0 false))) (let ((.def_590 (= fluent_ready_plt0_p0_t0@0 false))) (let ((.def_591 (= fluent_robot_has_r0_plt1@0 false))) (let ((.def_592 (= fluent_robot_has_r0_plt0@0 false))) (let ((.def_593 (= fluent_robot_at_r0_p1@0 false))) (let ((.def_594 (= fluent_robot_at_r0_p0@0 false))) (let ((.def_595 (= true true))) (let ((.def_596 (= fluent_position_free_p2@0 true))) (let ((.def_597 (= fluent_position_free_p1@0 true))) (let ((.def_598 (= fluent_position_free_p0@0 true))) (let ((.def_599 (= 0.0 0.0))) (let ((.def_600 (= 1.0 1.0))) (let ((.def_601 (= 2.0 2.0))) (let ((.def_602 (= fluent_battery_level_r0@0 12.0))) (let ((.def_603 (= fluent_pallet_at_plt1_p2@0 true))) (let ((.def_604 (= fluent_pallet_at_plt0_p2@0 true))) (let ((.def_605 (= fluent_robot_free_r0@0 true))) (let ((.def_606 (= fluent_robot_at_r0_p2@0 true))) (let ((.def_607 (and .def_606 .def_605 .def_604 .def_603 .def_602 .def_599 .def_600 .def_600 .def_601 .def_601 .def_599 .def_600 .def_600 .def_599 .def_595 .def_598 .def_597 .def_596 .def_595 .def_594 .def_593 .def_592 .def_591 .def_590 .def_589 .def_588 .def_587 .def_586 .def_585 .def_584 .def_583 .def_582 .def_581 .def_580 .def_579 .def_578 .def_578 .def_578 .def_578 .def_577 .def_576))) (let ((.def_608 (and .def_607 .def_575 .def_537 .def_485 .def_454 .def_429 .def_364 .def_363 true .def_335 .def_44 .def_40 .def_36 .def_35 .def_32 .def_29 .def_28 .def_27 .def_24 .def_23 .def_19 .def_15 .def_11 .def_10 .def_6 .def_5 .def_2 .def_1 .def_0 true))) .def_608))))))))))))))))))))))))))))))))))))))))))))))))))))))))))))))))))))))))))))))))))))))))))))))))))))))))))))))))))))))))))))))))))))))))))))))))))))))))))))))))))))))))))))))))))))))))))))))))))))))))))))))))))))))))))))))))))))))))))))))))))))))))))))))))))))))))))))))))))))))))))))))))))))))))))))))))))))))))))))))))))))))))))))))))))))))))))))))))))))))))))))))))))))))))))))))))))))))))))))))))))))))))))))))))))))))))))))))))))))))))))))))))))))))))))))))))))))))))))))))))))))))))))))))))))))))))))))))))))))))))))))))))))))))))))))))))))))))))))))))))))))))))))))))))))))))))))))))))))))))))))))))))))
(check-sat)


